15
1 0 2
2 0 13
2 1 14
3 0 2
3 1 8
3 2 20
4 0 7
4 1 4
4 2 15
4 3 2
5 0 6
5 1 22
5 2 13
5 3 20
5 4 10
6 0 22
6 1 17
6 2 16
6 3 19
6 4 7
6 5 12
7 0 11
7 1 11
7 2 15
7 3 13
7 4 3
7 5 3
7 6 22
8 0 9
8 1 12
8 2 20
8 3 13
8 4 12
8 5 4
8 6 1
8 7 8
9 0 17
9 1 1
9 2 16
9 3 20
9 4 22
9 5 2
9 6 16
9 7 1
9 8 15
10 0 5
10 1 5
10 2 13
10 3 18
10 4 7
10 5 5
10 6 12
10 7 15
10 8 17
10 9 19
11 0 11
11 1 17
11 2 13
11 3 9
11 4 8
11 5 19
11 6 22
11 7 3
11 8 12
11 9 18
11 10 3
12 0 8
12 1 7
12 2 1
12 3 8
12 4 17
12 5 12
12 6 18
12 7 17
12 8 5
12 9 15
12 10 1
12 11 18
13 0 4
13 1 14
13 2 13
13 3 12
13 4 6
13 5 14
13 6 14
13 7 12
13 8 14
13 9 12
13 10 2
13 11 12
13 12 14
14 0 1
14 1 21
14 2 10
14 3 3
14 4 15
14 5 1
14 6 12
14 7 8
14 8 20
14 9 15
14 10 3
14 11 4
14 12 15
14 13 18
